words_hard_train/7471.qaiger
aag 43 13 0 1 30
2
4
8
10
16
18
22
26
30
38
48
72
74
87
6 2 5
12 8 11
14 7 13
20 17 19
24 20 23
28 24 27
32 28 31
34 32 5
36 14 35
40 38 31
42 25 26
44 39 30
46 43 45
50 29 49
52 46 51
54 41 53
56 54 33
58 3 4
60 57 59
62 36 61
64 9 10
66 63 65
68 34 11
70 67 69
76 72 75
78 73 74
80 77 79
82 71 81
84 70 80
86 83 85
i0 1 x2[2]
i1 2 y1[5]
i2 1 x2[3]
i3 2 y1[6]
i4 2 y1[0]
i5 2 y1[2]
i6 2 y1[1]
i7 2 y1[3]
i8 2 y1[4]
i9 1 x2[1]
i10 1 x2[0]
i11 2 y1[7]
i12 1 x2[4]
o0 bv[0]
c
simplified
  >=
    unary minus
      1
    add
      unary minus
        2 y1
      << 3
        1 x2
