words_hard_train/7471.qaiger.qdimacs
p cnf 43 91
a 1 4 37 19 24 0
e 2 3 5 6 7 8 9 10 11 12 13 14 15 16 17 18 20 21 22 23 25 26 27 28 29 30 31 32 33 34 35 36 38 39 40 41 42 43 0
-1 2 3 0
1 -3 0
-2 -3 0
-4 5 6 0
4 -6 0
-5 -6 0
3 6 7 0
-3 -7 0
-6 -7 0
8 9 10 0
-8 -10 0
-9 -10 0
-10 11 12 0
10 -12 0
-11 -12 0
-12 13 14 0
12 -14 0
-13 -14 0
-14 15 16 0
14 -16 0
-15 -16 0
-16 2 17 0
16 -17 0
-2 -17 0
-7 17 18 0
7 -18 0
-17 -18 0
-19 15 20 0
19 -20 0
-15 -20 0
12 -13 21 0
-12 -21 0
13 -21 0
19 -15 22 0
-19 -22 0
15 -22 0
21 22 23 0
-21 -23 0
-22 -23 0
14 24 25 0
-14 -25 0
-24 -25 0
-23 25 26 0
23 -26 0
-25 -26 0
20 26 27 0
-20 -27 0
-26 -27 0
-27 16 28 0
27 -28 0
-16 -28 0
1 -2 29 0
-1 -29 0
2 -29 0
28 29 30 0
-28 -30 0
-29 -30 0
-18 30 31 0
18 -31 0
-30 -31 0
4 -5 32 0
-4 -32 0
5 -32 0
31 32 33 0
-31 -33 0
-32 -33 0
-17 5 34 0
17 -34 0
-5 -34 0
33 34 35 0
-33 -35 0
-34 -35 0
-36 37 38 0
36 -38 0
-37 -38 0
36 -37 39 0
-36 -39 0
37 -39 0
38 39 40 0
-38 -40 0
-39 -40 0
35 40 41 0
-35 -41 0
-40 -41 0
-35 -40 42 0
35 -42 0
40 -42 0
41 42 43 0
-41 -43 0
-42 -43 0
-43 0
